
Gurobi 10.0.3 (linux64, gurobi_cl) logging started Thu Nov  2 11:34:05 2023

Set parameter Username
Set parameter TimeLimit to value 3600
Set parameter LogFile to value "RCPSP_376.log"
Set parameter Threads to value 32
Academic license - for non-commercial use only - expires 2024-10-30
Using license file /home/jrivera6/gurobi-licenses/v1003/compute-0-35/gurobi.lic

Gurobi Optimizer version 10.0.3 build v10.0.3rc0 (linux64)
Copyright (c) 2023, Gurobi Optimization, LLC

Read MPS format model from file RCPSP_376.mps
Reading time = 0.01 seconds
RCPSP_376: 5349 rows, 2080 columns, 17064 nonzeros

CPU model: Intel(R) Xeon(R) Gold 6130 CPU @ 2.10GHz, instruction set [SSE2|AVX|AVX2|AVX512]
Thread count: 32 physical cores, 32 logical processors, using up to 32 threads

Optimize a model with 5349 rows, 2080 columns and 17064 nonzeros
Model fingerprint: 0x5eaa6d27
Variable types: 32 continuous, 2048 integer (2048 binary)
Coefficient statistics:
  Matrix range     [1e+00, 2e+02]
  Objective range  [1e+00, 1e+00]
  Bounds range     [1e+00, 1e+00]
  RHS range        [1e+00, 2e+02]
Presolve removed 3503 rows and 1402 columns
Presolve time: 0.26s
Presolved: 1846 rows, 678 columns, 5678 nonzeros
Variable types: 31 continuous, 647 integer (647 binary)

Root relaxation: objective 6.300000e+01, 252 iterations, 0.00 seconds (0.00 work units)

    Nodes    |    Current Node    |     Objective Bounds      |     Work
 Expl Unexpl |  Obj  Depth IntInf | Incumbent    BestBd   Gap | It/Node Time

     0     0   63.00000    0    4          -   63.00000      -     -    0s
H    0     0                      64.0000000   63.00000  1.56%     -    0s
     0     0   63.00000    0   52   64.00000   63.00000  1.56%     -    0s
H    0     0                      63.0000000   63.00000  0.00%     -    1s
     0     0   63.00000    0   37   63.00000   63.00000  0.00%     -    1s

Explored 1 nodes (793 simplex iterations) in 1.25 seconds (0.24 work units)
Thread count was 32 (of 32 available processors)

Solution count 2: 63 64 

Optimal solution found (tolerance 1.00e-04)
Best objective 6.300000000000e+01, best bound 6.300000000000e+01, gap 0.0000%

Wrote result file 'RCPSP_376.sol'

